%nprocshared=4
%mem=4GB
%chk=brch3cl_irc3.chk
%nosave
# irc=(calcfc,maxpoints=20,recalc=3) b3lyp/6-311+g(d,p)

BrCH3Cl_6311G_dp_IRC

-1 1
 C                  3.02111754    0.02738782    0.21265838
 H                  2.63590770    0.33824939   -0.73596083
 H                  2.82868547    0.61410320    1.08652050
 H                  3.59875835   -0.87018834    0.28741242
 Br                 1.08261842   -1.18775188    0.60163805
 Cl                 4.85311757    1.17576568   -0.15494251

