%nprocshared=2
%mem=4GB
%chk=ch3br.chk
%nosave
# opt=maxcycles=2048 freq=noraman b3lyp/6-311g(d,p) scf=qc

CH3Br_6311G_dp

0 1
 C                  3.07573064    0.04296667    0.00000000
 H                  3.43080540    0.54680016    0.87462777
 H                  3.43399977    0.54792950   -0.87267163
 H                  2.00573243    0.04298040   -0.00195613
 Br                 3.71237528   -1.75780638   -0.00000000



