%nprocshared=2
%mem=2GB
%chk=h2_631g.chk
%nosave
# opt=maxcycles=2048 freq=noraman b3lyp/6-31g

H2_631G

0 1
 H                 -3.27363674    1.11359881    0.00000000
 H                 -2.68624849    1.23597136    0.00000000



